sat
(:max-memory         18.24
 :memory             18.03
 :nlsat-propagations 13
 :nlsat-stages       4
 :num-allocs         7958
 :rlimit-count       6364
 :time               0.00
 :total-time         0.01)
